p cnf 33 93
-8 -9 0
-8 -10 0
-8 -11 0
-9 -10 0
-9 -11 0
-10 -11 0
8 9 10 11 0
2 -8 0
4 -9 0
6 -10 0
7 -11 0
-12 -13 0
-12 -14 0
-12 -15 0
-12 -16 0
-13 -14 0
-13 -15 0
-13 -16 0
-14 -15 0
-14 -16 0
-15 -16 0
12 13 14 15 16 0
-17 -18 0
-17 -19 0
-17 -20 0
-17 -21 0
-18 -19 0
-18 -20 0
-18 -21 0
-19 -20 0
-19 -21 0
-20 -21 0
17 18 19 20 21 0
-22 -23 0
-22 -24 0
-22 -25 0
-22 -26 0
-22 -27 0
-23 -24 0
-23 -25 0
-23 -26 0
-23 -27 0
-24 -25 0
-24 -26 0
-24 -27 0
-25 -26 0
-25 -27 0
-26 -27 0
22 23 24 25 26 27 0
-28 -29 0
-28 -30 0
-28 -31 0
-28 -32 0
-28 -33 0
-29 -30 0
-29 -31 0
-29 -32 0
-29 -33 0
-30 -31 0
-30 -32 0
-30 -33 0
-31 -32 0
-31 -33 0
-32 -33 0
28 29 30 31 32 33 0
-1 -12 -22 0
-1 -13 -24 0
-1 -14 -25 0
-1 -15 -26 0
-1 -16 -27 0
-2 -12 -28 0
-2 -13 -30 0
-2 -14 -31 0
-2 -15 -32 0
-2 -16 -33 0
-3 -17 -22 0
-3 -18 -24 0
-3 -19 -25 0
-3 -20 -26 0
-3 -21 -27 0
-4 -17 -28 0
-4 -18 -30 0
-4 -19 -31 0
-4 -20 -32 0
-4 -21 -33 0
-5 -23 0
-6 -22 -28 0
-6 -23 -29 0
-6 -24 -30 0
-6 -25 -31 0
-6 -26 -32 0
-6 -27 -33 0
-7 -29 0
